p tdp 16 50
1 6
1 8
1 11
1 12
1 13
2 5
2 9
2 12
2 16
3 5
3 7
3 10
3 11
3 13
3 15
4 13
4 14
4 16
5 7
5 11
5 12
5 13
5 14
5 15
5 16
6 7
6 10
6 11
6 13
7 8
7 9
7 11
7 14
7 15
7 16
8 11
8 12
8 13
9 10
9 13
10 13
10 15
11 13
11 14
12 13
12 14
12 15
12 16
13 14
13 15
